Route #1: 3 44 40 11 43 24 10 23 39 9 31 12 5
Route #2: 2 37 32 25 21 36 27 15
Route #3: 30 7 14 22 38 35 42
Route #4: 17 8 19 33 20
Route #5: 18 41 16 4 28 29 34 26 13
Route #6: 1 6
Route #7: 
cost 1449.1327044537124
